38248 40963 
37477 41262 
37906 40992 
37089 41329 
37879 41008 
37833 41046 
36635 41514 
36475 41624 
36792 41395 
37043 41364 
36765 41411 
37283 41295 
36977 41367 
37256 41311 
37748 41068 
37824 41051 
37926 40988 
